p cnf 722 1437              
-2 -1 -73 0
73 -87 0
-1 74 0
-2 74 0
1 2 -74 0
-74 -3 -75 0
75 -87 0
-3 76 0
-74 76 0
3 74 -76 0
-76 -4 -77 0
77 -87 0
-4 78 0
-76 78 0
4 76 -78 0
-78 -5 -79 0
79 -87 0
-5 80 0
-78 80 0
5 78 -80 0
-80 -6 -81 0
81 -87 0
-6 82 0
-80 82 0
6 80 -82 0
-82 -7 -83 0
83 -87 0
-7 84 0
-82 84 0
7 82 -84 0
-84 -8 -85 0
85 -87 0
8 84 -86 0
86 -87 0
87 -193 0
-10 -9 -88 0
88 -102 0
-9 89 0
-10 89 0
9 10 -89 0
-89 -11 -90 0
90 -102 0
-11 91 0
-89 91 0
11 89 -91 0
-91 -12 -92 0
92 -102 0
-12 93 0
-91 93 0
12 91 -93 0
-93 -13 -94 0
94 -102 0
-13 95 0
-93 95 0
13 93 -95 0
-95 -14 -96 0
96 -102 0
-14 97 0
-95 97 0
14 95 -97 0
-97 -15 -98 0
98 -102 0
-15 99 0
-97 99 0
15 97 -99 0
-99 -16 -100 0
100 -102 0
16 99 -101 0
101 -102 0
102 -193 0
-18 -17 -103 0
103 -117 0
-17 104 0
-18 104 0
17 18 -104 0
-104 -19 -105 0
105 -117 0
-19 106 0
-104 106 0
19 104 -106 0
-106 -20 -107 0
107 -117 0
-20 108 0
-106 108 0
20 106 -108 0
-108 -21 -109 0
109 -117 0
-21 110 0
-108 110 0
21 108 -110 0
-110 -22 -111 0
111 -117 0
-22 112 0
-110 112 0
22 110 -112 0
-112 -23 -113 0
113 -117 0
-23 114 0
-112 114 0
23 112 -114 0
-114 -24 -115 0
115 -117 0
24 114 -116 0
116 -117 0
117 -193 0
-26 -25 -118 0
118 -132 0
-25 119 0
-26 119 0
25 26 -119 0
-119 -27 -120 0
120 -132 0
-27 121 0
-119 121 0
27 119 -121 0
-121 -28 -122 0
122 -132 0
-28 123 0
-121 123 0
28 121 -123 0
-123 -29 -124 0
124 -132 0
-29 125 0
-123 125 0
29 123 -125 0
-125 -30 -126 0
126 -132 0
-30 127 0
-125 127 0
30 125 -127 0
-127 -31 -128 0
128 -132 0
-31 129 0
-127 129 0
31 127 -129 0
-129 -32 -130 0
130 -132 0
32 129 -131 0
131 -132 0
132 -193 0
-34 -33 -133 0
133 -147 0
-33 134 0
-34 134 0
33 34 -134 0
-134 -35 -135 0
135 -147 0
-35 136 0
-134 136 0
35 134 -136 0
-136 -36 -137 0
137 -147 0
-36 138 0
-136 138 0
36 136 -138 0
-138 -37 -139 0
139 -147 0
-37 140 0
-138 140 0
37 138 -140 0
-140 -38 -141 0
141 -147 0
-38 142 0
-140 142 0
38 140 -142 0
-142 -39 -143 0
143 -147 0
-39 144 0
-142 144 0
39 142 -144 0
-144 -40 -145 0
145 -147 0
40 144 -146 0
146 -147 0
147 -193 0
-42 -41 -148 0
148 -162 0
-41 149 0
-42 149 0
41 42 -149 0
-149 -43 -150 0
150 -162 0
-43 151 0
-149 151 0
43 149 -151 0
-151 -44 -152 0
152 -162 0
-44 153 0
-151 153 0
44 151 -153 0
-153 -45 -154 0
154 -162 0
-45 155 0
-153 155 0
45 153 -155 0
-155 -46 -156 0
156 -162 0
-46 157 0
-155 157 0
46 155 -157 0
-157 -47 -158 0
158 -162 0
-47 159 0
-157 159 0
47 157 -159 0
-159 -48 -160 0
160 -162 0
48 159 -161 0
161 -162 0
162 -193 0
-50 -49 -163 0
163 -177 0
-49 164 0
-50 164 0
49 50 -164 0
-164 -51 -165 0
165 -177 0
-51 166 0
-164 166 0
51 164 -166 0
-166 -52 -167 0
167 -177 0
-52 168 0
-166 168 0
52 166 -168 0
-168 -53 -169 0
169 -177 0
-53 170 0
-168 170 0
53 168 -170 0
-170 -54 -171 0
171 -177 0
-54 172 0
-170 172 0
54 170 -172 0
-172 -55 -173 0
173 -177 0
-55 174 0
-172 174 0
55 172 -174 0
-174 -56 -175 0
175 -177 0
56 174 -176 0
176 -177 0
177 -193 0
-58 -57 -178 0
178 -192 0
-57 179 0
-58 179 0
57 58 -179 0
-179 -59 -180 0
180 -192 0
-59 181 0
-179 181 0
59 179 -181 0
-181 -60 -182 0
182 -192 0
-60 183 0
-181 183 0
60 181 -183 0
-183 -61 -184 0
184 -192 0
-61 185 0
-183 185 0
61 183 -185 0
-185 -62 -186 0
186 -192 0
-62 187 0
-185 187 0
62 185 -187 0
-187 -63 -188 0
188 -192 0
-63 189 0
-187 189 0
63 187 -189 0
-189 -64 -190 0
190 -192 0
64 189 -191 0
191 -192 0
192 -193 0
193 -307 0
-66 -65 -194 0
194 -208 0
-65 195 0
-66 195 0
65 66 -195 0
-195 -67 -196 0
196 -208 0
-67 197 0
-195 197 0
67 195 -197 0
-197 -68 -198 0
198 -208 0
-68 199 0
-197 199 0
68 197 -199 0
-199 -69 -200 0
200 -208 0
-69 201 0
-199 201 0
69 199 -201 0
-201 -70 -202 0
202 -208 0
-70 203 0
-201 203 0
70 201 -203 0
-203 -71 -204 0
204 -208 0
-71 205 0
-203 205 0
71 203 -205 0
-205 -72 -206 0
206 -208 0
72 205 -207 0
207 -208 0
208 -307 0
-8 -209 0
-7 -209 0
-6 -209 0
-5 -209 0
-4 -209 0
-3 -209 0
-2 -209 0
209 -217 0
-16 -210 0
-15 -210 0
-14 -210 0
-13 -210 0
-12 -210 0
-11 -210 0
-9 -210 0
210 -217 0
-24 -211 0
-23 -211 0
-22 -211 0
-21 -211 0
-20 -211 0
-18 -211 0
-17 -211 0
211 -217 0
-32 -212 0
-31 -212 0
-30 -212 0
-29 -212 0
-27 -212 0
-26 -212 0
-25 -212 0
212 -217 0
-40 -213 0
-39 -213 0
-38 -213 0
-36 -213 0
-35 -213 0
-34 -213 0
-33 -213 0
213 -217 0
-48 -214 0
-47 -214 0
-45 -214 0
-44 -214 0
-43 -214 0
-42 -214 0
-41 -214 0
214 -217 0
-56 -215 0
-54 -215 0
-53 -215 0
-52 -215 0
-51 -215 0
-50 -215 0
-49 -215 0
215 -217 0
-63 -216 0
-62 -216 0
-61 -216 0
-60 -216 0
-59 -216 0
-58 -216 0
-57 -216 0
216 -217 0
217 -307 0
-71 -295 0
-70 -295 0
-69 -295 0
-68 -295 0
-67 -295 0
-66 -295 0
-65 -295 0
71 70 69 68 67 66 65 295 0
65 296 0
-57 296 0
-65 57 -296 0
296 -304 0
66 297 0
-58 297 0
-66 58 -297 0
297 -304 0
67 298 0
-59 298 0
-67 59 -298 0
298 -304 0
68 299 0
-60 299 0
-68 60 -299 0
299 -304 0
69 300 0
-61 300 0
-69 61 -300 0
300 -304 0
70 301 0
-62 301 0
-70 62 -301 0
301 -304 0
71 302 0
-63 302 0
-71 63 -302 0
302 -304 0
72 303 0
-64 303 0
-72 64 -303 0
303 -304 0
-296 -297 -298 -299 -300 -301 -302 -303 304 0
-295 -304 305 0
295 304 305 0
-304 304 305 0
-72 -284 0
-70 -284 0
-69 -284 0
-68 -284 0
-67 -284 0
-66 -284 0
-65 -284 0
72 70 69 68 67 66 65 284 0
65 285 0
-49 285 0
-65 49 -285 0
285 -293 0
66 286 0
-50 286 0
-66 50 -286 0
286 -293 0
67 287 0
-51 287 0
-67 51 -287 0
287 -293 0
68 288 0
-52 288 0
-68 52 -288 0
288 -293 0
69 289 0
-53 289 0
-69 53 -289 0
289 -293 0
70 290 0
-54 290 0
-70 54 -290 0
290 -293 0
71 291 0
-55 291 0
-71 55 -291 0
291 -293 0
72 292 0
-56 292 0
-72 56 -292 0
292 -293 0
-285 -286 -287 -288 -289 -290 -291 -292 293 0
-284 -293 294 0
284 293 294 0
-293 293 294 0
-72 -273 0
-71 -273 0
-69 -273 0
-68 -273 0
-67 -273 0
-66 -273 0
-65 -273 0
72 71 69 68 67 66 65 273 0
65 274 0
-41 274 0
-65 41 -274 0
274 -282 0
66 275 0
-42 275 0
-66 42 -275 0
275 -282 0
67 276 0
-43 276 0
-67 43 -276 0
276 -282 0
68 277 0
-44 277 0
-68 44 -277 0
277 -282 0
69 278 0
-45 278 0
-69 45 -278 0
278 -282 0
70 279 0
-46 279 0
-70 46 -279 0
279 -282 0
71 280 0
-47 280 0
-71 47 -280 0
280 -282 0
72 281 0
-48 281 0
-72 48 -281 0
281 -282 0
-274 -275 -276 -277 -278 -279 -280 -281 282 0
-273 -282 283 0
273 282 283 0
-282 282 283 0
-72 -262 0
-71 -262 0
-70 -262 0
-68 -262 0
-67 -262 0
-66 -262 0
-65 -262 0
72 71 70 68 67 66 65 262 0
65 263 0
-33 263 0
-65 33 -263 0
263 -271 0
66 264 0
-34 264 0
-66 34 -264 0
264 -271 0
67 265 0
-35 265 0
-67 35 -265 0
265 -271 0
68 266 0
-36 266 0
-68 36 -266 0
266 -271 0
69 267 0
-37 267 0
-69 37 -267 0
267 -271 0
70 268 0
-38 268 0
-70 38 -268 0
268 -271 0
71 269 0
-39 269 0
-71 39 -269 0
269 -271 0
72 270 0
-40 270 0
-72 40 -270 0
270 -271 0
-263 -264 -265 -266 -267 -268 -269 -270 271 0
-262 -271 272 0
262 271 272 0
-271 271 272 0
-72 -251 0
-71 -251 0
-70 -251 0
-69 -251 0
-67 -251 0
-66 -251 0
-65 -251 0
72 71 70 69 67 66 65 251 0
65 252 0
-25 252 0
-65 25 -252 0
252 -260 0
66 253 0
-26 253 0
-66 26 -253 0
253 -260 0
67 254 0
-27 254 0
-67 27 -254 0
254 -260 0
68 255 0
-28 255 0
-68 28 -255 0
255 -260 0
69 256 0
-29 256 0
-69 29 -256 0
256 -260 0
70 257 0
-30 257 0
-70 30 -257 0
257 -260 0
71 258 0
-31 258 0
-71 31 -258 0
258 -260 0
72 259 0
-32 259 0
-72 32 -259 0
259 -260 0
-252 -253 -254 -255 -256 -257 -258 -259 260 0
-251 -260 261 0
251 260 261 0
-260 260 261 0
-72 -240 0
-71 -240 0
-70 -240 0
-69 -240 0
-68 -240 0
-66 -240 0
-65 -240 0
72 71 70 69 68 66 65 240 0
65 241 0
-17 241 0
-65 17 -241 0
241 -249 0
66 242 0
-18 242 0
-66 18 -242 0
242 -249 0
67 243 0
-19 243 0
-67 19 -243 0
243 -249 0
68 244 0
-20 244 0
-68 20 -244 0
244 -249 0
69 245 0
-21 245 0
-69 21 -245 0
245 -249 0
70 246 0
-22 246 0
-70 22 -246 0
246 -249 0
71 247 0
-23 247 0
-71 23 -247 0
247 -249 0
72 248 0
-24 248 0
-72 24 -248 0
248 -249 0
-241 -242 -243 -244 -245 -246 -247 -248 249 0
-240 -249 250 0
240 249 250 0
-249 249 250 0
-72 -229 0
-71 -229 0
-70 -229 0
-69 -229 0
-68 -229 0
-67 -229 0
-65 -229 0
72 71 70 69 68 67 65 229 0
65 230 0
-9 230 0
-65 9 -230 0
230 -238 0
66 231 0
-10 231 0
-66 10 -231 0
231 -238 0
67 232 0
-11 232 0
-67 11 -232 0
232 -238 0
68 233 0
-12 233 0
-68 12 -233 0
233 -238 0
69 234 0
-13 234 0
-69 13 -234 0
234 -238 0
70 235 0
-14 235 0
-70 14 -235 0
235 -238 0
71 236 0
-15 236 0
-71 15 -236 0
236 -238 0
72 237 0
-16 237 0
-72 16 -237 0
237 -238 0
-230 -231 -232 -233 -234 -235 -236 -237 238 0
-229 -238 239 0
229 238 239 0
-238 238 239 0
-72 -218 0
-71 -218 0
-70 -218 0
-69 -218 0
-68 -218 0
-67 -218 0
-66 -218 0
72 71 70 69 68 67 66 218 0
65 219 0
-1 219 0
-65 1 -219 0
219 -227 0
66 220 0
-2 220 0
-66 2 -220 0
220 -227 0
67 221 0
-3 221 0
-67 3 -221 0
221 -227 0
68 222 0
-4 222 0
-68 4 -222 0
222 -227 0
69 223 0
-5 223 0
-69 5 -223 0
223 -227 0
70 224 0
-6 224 0
-70 6 -224 0
224 -227 0
71 225 0
-7 225 0
-71 7 -225 0
225 -227 0
72 226 0
-8 226 0
-72 8 -226 0
226 -227 0
-219 -220 -221 -222 -223 -224 -225 -226 227 0
-218 -227 228 0
218 227 228 0
-227 227 228 0
-305 -294 -283 -272 -261 -250 -239 -228 -306 0
306 -307 0
-65 66 -308 0
308 -366 0
-65 -66 309 0
65 66 309 0
-66 66 309 0
-1 10 -310 0
-309 310 -311 0
311 -366 0
-1 -10 312 0
1 10 312 0
-10 10 312 0
-309 -312 313 0
-2 9 -314 0
-313 314 -315 0
315 -366 0
-2 -9 316 0
2 9 316 0
-9 9 316 0
-313 -316 317 0
-3 11 -318 0
-317 318 -319 0
319 -366 0
-3 -11 320 0
3 11 320 0
-11 11 320 0
-317 -320 321 0
-4 12 -322 0
-321 322 -323 0
323 -366 0
-4 -12 324 0
4 12 324 0
-12 12 324 0
-321 -324 325 0
-5 13 -326 0
-325 326 -327 0
327 -366 0
-5 -13 328 0
5 13 328 0
-13 13 328 0
-325 -328 329 0
-6 14 -330 0
-329 330 -331 0
331 -366 0
-6 -14 332 0
6 14 332 0
-14 14 332 0
-329 -332 333 0
-7 15 -334 0
-333 334 -335 0
335 -366 0
-7 -15 336 0
7 15 336 0
-15 15 336 0
-333 -336 337 0
-8 16 -338 0
-337 338 -339 0
339 -366 0
-8 -16 340 0
8 16 340 0
-16 16 340 0
-337 -340 341 0
-17 18 -342 0
-341 342 -343 0
343 -366 0
-17 -18 344 0
17 18 344 0
-18 18 344 0
-341 -344 345 0
-25 26 -346 0
-345 346 -347 0
347 -366 0
-25 -26 348 0
25 26 348 0
-26 26 348 0
-345 -348 349 0
-33 34 -350 0
-349 350 -351 0
351 -366 0
-33 -34 352 0
33 34 352 0
-34 34 352 0
-349 -352 353 0
-41 42 -354 0
-353 354 -355 0
355 -366 0
-41 -42 356 0
41 42 356 0
-42 42 356 0
-353 -356 357 0
-49 50 -358 0
-357 358 -359 0
359 -366 0
-49 -50 360 0
49 50 360 0
-50 50 360 0
-357 -360 361 0
-57 58 -362 0
-361 362 -363 0
363 -366 0
366 -721 0
-66 67 -367 0
367 -425 0
-66 -67 368 0
66 67 368 0
-67 67 368 0
-2 3 -369 0
-368 369 -370 0
370 -425 0
-2 -3 371 0
2 3 371 0
-3 3 371 0
-368 -371 372 0
-9 17 -373 0
-372 373 -374 0
374 -425 0
-9 -17 375 0
9 17 375 0
-17 17 375 0
-372 -375 376 0
-10 19 -377 0
-376 377 -378 0
378 -425 0
-10 -19 379 0
10 19 379 0
-19 19 379 0
-376 -379 380 0
-11 18 -381 0
-380 381 -382 0
382 -425 0
-11 -18 383 0
11 18 383 0
-18 18 383 0
-380 -383 384 0
-12 20 -385 0
-384 385 -386 0
386 -425 0
-12 -20 387 0
12 20 387 0
-20 20 387 0
-384 -387 388 0
-13 21 -389 0
-388 389 -390 0
390 -425 0
-13 -21 391 0
13 21 391 0
-21 21 391 0
-388 -391 392 0
-14 22 -393 0
-392 393 -394 0
394 -425 0
-14 -22 395 0
14 22 395 0
-22 22 395 0
-392 -395 396 0
-15 23 -397 0
-396 397 -398 0
398 -425 0
-15 -23 399 0
15 23 399 0
-23 23 399 0
-396 -399 400 0
-16 24 -401 0
-400 401 -402 0
402 -425 0
-16 -24 403 0
16 24 403 0
-24 24 403 0
-400 -403 404 0
-26 27 -405 0
-404 405 -406 0
406 -425 0
-26 -27 407 0
26 27 407 0
-27 27 407 0
-404 -407 408 0
-34 35 -409 0
-408 409 -410 0
410 -425 0
-34 -35 411 0
34 35 411 0
-35 35 411 0
-408 -411 412 0
-42 43 -413 0
-412 413 -414 0
414 -425 0
-42 -43 415 0
42 43 415 0
-43 43 415 0
-412 -415 416 0
-50 51 -417 0
-416 417 -418 0
418 -425 0
-50 -51 419 0
50 51 419 0
-51 51 419 0
-416 -419 420 0
-58 59 -421 0
-420 421 -422 0
422 -425 0
425 -721 0
-67 68 -426 0
426 -484 0
-67 -68 427 0
67 68 427 0
-68 68 427 0
-3 4 -428 0
-427 428 -429 0
429 -484 0
-3 -4 430 0
3 4 430 0
-4 4 430 0
-427 -430 431 0
-11 12 -432 0
-431 432 -433 0
433 -484 0
-11 -12 434 0
11 12 434 0
-12 12 434 0
-431 -434 435 0
-17 25 -436 0
-435 436 -437 0
437 -484 0
-17 -25 438 0
17 25 438 0
-25 25 438 0
-435 -438 439 0
-18 26 -440 0
-439 440 -441 0
441 -484 0
-18 -26 442 0
18 26 442 0
-26 26 442 0
-439 -442 443 0
-19 28 -444 0
-443 444 -445 0
445 -484 0
-19 -28 446 0
19 28 446 0
-28 28 446 0
-443 -446 447 0
-20 27 -448 0
-447 448 -449 0
449 -484 0
-20 -27 450 0
20 27 450 0
-27 27 450 0
-447 -450 451 0
-21 29 -452 0
-451 452 -453 0
453 -484 0
-21 -29 454 0
21 29 454 0
-29 29 454 0
-451 -454 455 0
-22 30 -456 0
-455 456 -457 0
457 -484 0
-22 -30 458 0
22 30 458 0
-30 30 458 0
-455 -458 459 0
-23 31 -460 0
-459 460 -461 0
461 -484 0
-23 -31 462 0
23 31 462 0
-31 31 462 0
-459 -462 463 0
-24 32 -464 0
-463 464 -465 0
465 -484 0
-24 -32 466 0
24 32 466 0
-32 32 466 0
-463 -466 467 0
-35 36 -468 0
-467 468 -469 0
469 -484 0
-35 -36 470 0
35 36 470 0
-36 36 470 0
-467 -470 471 0
-43 44 -472 0
-471 472 -473 0
473 -484 0
-43 -44 474 0
43 44 474 0
-44 44 474 0
-471 -474 475 0
-51 52 -476 0
-475 476 -477 0
477 -484 0
-51 -52 478 0
51 52 478 0
-52 52 478 0
-475 -478 479 0
-59 60 -480 0
-479 480 -481 0
481 -484 0
484 -721 0
-68 69 -485 0
485 -543 0
-68 -69 486 0
68 69 486 0
-69 69 486 0
-4 5 -487 0
-486 487 -488 0
488 -543 0
-4 -5 489 0
4 5 489 0
-5 5 489 0
-486 -489 490 0
-12 13 -491 0
-490 491 -492 0
492 -543 0
-12 -13 493 0
12 13 493 0
-13 13 493 0
-490 -493 494 0
-20 21 -495 0
-494 495 -496 0
496 -543 0
-20 -21 497 0
20 21 497 0
-21 21 497 0
-494 -497 498 0
-25 33 -499 0
-498 499 -500 0
500 -543 0
-25 -33 501 0
25 33 501 0
-33 33 501 0
-498 -501 502 0
-26 34 -503 0
-502 503 -504 0
504 -543 0
-26 -34 505 0
26 34 505 0
-34 34 505 0
-502 -505 506 0
-27 35 -507 0
-506 507 -508 0
508 -543 0
-27 -35 509 0
27 35 509 0
-35 35 509 0
-506 -509 510 0
-28 37 -511 0
-510 511 -512 0
512 -543 0
-28 -37 513 0
28 37 513 0
-37 37 513 0
-510 -513 514 0
-29 36 -515 0
-514 515 -516 0
516 -543 0
-29 -36 517 0
29 36 517 0
-36 36 517 0
-514 -517 518 0
-30 38 -519 0
-518 519 -520 0
520 -543 0
-30 -38 521 0
30 38 521 0
-38 38 521 0
-518 -521 522 0
-31 39 -523 0
-522 523 -524 0
524 -543 0
-31 -39 525 0
31 39 525 0
-39 39 525 0
-522 -525 526 0
-32 40 -527 0
-526 527 -528 0
528 -543 0
-32 -40 529 0
32 40 529 0
-40 40 529 0
-526 -529 530 0
-44 45 -531 0
-530 531 -532 0
532 -543 0
-44 -45 533 0
44 45 533 0
-45 45 533 0
-530 -533 534 0
-52 53 -535 0
-534 535 -536 0
536 -543 0
-52 -53 537 0
52 53 537 0
-53 53 537 0
-534 -537 538 0
-60 61 -539 0
-538 539 -540 0
540 -543 0
543 -721 0
-69 70 -544 0
544 -602 0
-69 -70 545 0
69 70 545 0
-70 70 545 0
-5 6 -546 0
-545 546 -547 0
547 -602 0
-5 -6 548 0
5 6 548 0
-6 6 548 0
-545 -548 549 0
-13 14 -550 0
-549 550 -551 0
551 -602 0
-13 -14 552 0
13 14 552 0
-14 14 552 0
-549 -552 553 0
-21 22 -554 0
-553 554 -555 0
555 -602 0
-21 -22 556 0
21 22 556 0
-22 22 556 0
-553 -556 557 0
-29 30 -558 0
-557 558 -559 0
559 -602 0
-29 -30 560 0
29 30 560 0
-30 30 560 0
-557 -560 561 0
-33 41 -562 0
-561 562 -563 0
563 -602 0
-33 -41 564 0
33 41 564 0
-41 41 564 0
-561 -564 565 0
-34 42 -566 0
-565 566 -567 0
567 -602 0
-34 -42 568 0
34 42 568 0
-42 42 568 0
-565 -568 569 0
-35 43 -570 0
-569 570 -571 0
571 -602 0
-35 -43 572 0
35 43 572 0
-43 43 572 0
-569 -572 573 0
-36 44 -574 0
-573 574 -575 0
575 -602 0
-36 -44 576 0
36 44 576 0
-44 44 576 0
-573 -576 577 0
-37 46 -578 0
-577 578 -579 0
579 -602 0
-37 -46 580 0
37 46 580 0
-46 46 580 0
-577 -580 581 0
-38 45 -582 0
-581 582 -583 0
583 -602 0
-38 -45 584 0
38 45 584 0
-45 45 584 0
-581 -584 585 0
-39 47 -586 0
-585 586 -587 0
587 -602 0
-39 -47 588 0
39 47 588 0
-47 47 588 0
-585 -588 589 0
-40 48 -590 0
-589 590 -591 0
591 -602 0
-40 -48 592 0
40 48 592 0
-48 48 592 0
-589 -592 593 0
-53 54 -594 0
-593 594 -595 0
595 -602 0
-53 -54 596 0
53 54 596 0
-54 54 596 0
-593 -596 597 0
-61 62 -598 0
-597 598 -599 0
599 -602 0
602 -721 0
-70 71 -603 0
603 -661 0
-70 -71 604 0
70 71 604 0
-71 71 604 0
-6 7 -605 0
-604 605 -606 0
606 -661 0
-6 -7 607 0
6 7 607 0
-7 7 607 0
-604 -607 608 0
-14 15 -609 0
-608 609 -610 0
610 -661 0
-14 -15 611 0
14 15 611 0
-15 15 611 0
-608 -611 612 0
-22 23 -613 0
-612 613 -614 0
614 -661 0
-22 -23 615 0
22 23 615 0
-23 23 615 0
-612 -615 616 0
-30 31 -617 0
-616 617 -618 0
618 -661 0
-30 -31 619 0
30 31 619 0
-31 31 619 0
-616 -619 620 0
-38 39 -621 0
-620 621 -622 0
622 -661 0
-38 -39 623 0
38 39 623 0
-39 39 623 0
-620 -623 624 0
-41 49 -625 0
-624 625 -626 0
626 -661 0
-41 -49 627 0
41 49 627 0
-49 49 627 0
-624 -627 628 0
-42 50 -629 0
-628 629 -630 0
630 -661 0
-42 -50 631 0
42 50 631 0
-50 50 631 0
-628 -631 632 0
-43 51 -633 0
-632 633 -634 0
634 -661 0
-43 -51 635 0
43 51 635 0
-51 51 635 0
-632 -635 636 0
-44 52 -637 0
-636 637 -638 0
638 -661 0
-44 -52 639 0
44 52 639 0
-52 52 639 0
-636 -639 640 0
-45 53 -641 0
-640 641 -642 0
642 -661 0
-45 -53 643 0
45 53 643 0
-53 53 643 0
-640 -643 644 0
-46 55 -645 0
-644 645 -646 0
646 -661 0
-46 -55 647 0
46 55 647 0
-55 55 647 0
-644 -647 648 0
-47 54 -649 0
-648 649 -650 0
650 -661 0
-47 -54 651 0
47 54 651 0
-54 54 651 0
-648 -651 652 0
-48 56 -653 0
-652 653 -654 0
654 -661 0
-48 -56 655 0
48 56 655 0
-56 56 655 0
-652 -655 656 0
-62 63 -657 0
-656 657 -658 0
658 -661 0
661 -721 0
-71 72 -662 0
662 -720 0
-71 -72 663 0
71 72 663 0
-72 72 663 0
-7 8 -664 0
-663 664 -665 0
665 -720 0
-7 -8 666 0
7 8 666 0
-8 8 666 0
-663 -666 667 0
-15 16 -668 0
-667 668 -669 0
669 -720 0
-15 -16 670 0
15 16 670 0
-16 16 670 0
-667 -670 671 0
-23 24 -672 0
-671 672 -673 0
673 -720 0
-23 -24 674 0
23 24 674 0
-24 24 674 0
-671 -674 675 0
-31 32 -676 0
-675 676 -677 0
677 -720 0
-31 -32 678 0
31 32 678 0
-32 32 678 0
-675 -678 679 0
-39 40 -680 0
-679 680 -681 0
681 -720 0
-39 -40 682 0
39 40 682 0
-40 40 682 0
-679 -682 683 0
-47 48 -684 0
-683 684 -685 0
685 -720 0
-47 -48 686 0
47 48 686 0
-48 48 686 0
-683 -686 687 0
-49 57 -688 0
-687 688 -689 0
689 -720 0
-49 -57 690 0
49 57 690 0
-57 57 690 0
-687 -690 691 0
-50 58 -692 0
-691 692 -693 0
693 -720 0
-50 -58 694 0
50 58 694 0
-58 58 694 0
-691 -694 695 0
-51 59 -696 0
-695 696 -697 0
697 -720 0
-51 -59 698 0
51 59 698 0
-59 59 698 0
-695 -698 699 0
-52 60 -700 0
-699 700 -701 0
701 -720 0
-52 -60 702 0
52 60 702 0
-60 60 702 0
-699 -702 703 0
-53 61 -704 0
-703 704 -705 0
705 -720 0
-53 -61 706 0
53 61 706 0
-61 61 706 0
-703 -706 707 0
-54 62 -708 0
-707 708 -709 0
709 -720 0
-54 -62 710 0
54 62 710 0
-62 62 710 0
-707 -710 711 0
-55 64 -712 0
-711 712 -713 0
713 -720 0
-55 -64 714 0
55 64 714 0
-64 64 714 0
-711 -714 715 0
-56 63 -716 0
-715 716 -717 0
717 -720 0
720 -721 0
307 0
721 0
